StringID Type x y demand ReadyTime DueDate ServiceTime
D0 d 35 35.0 0.0 0.0 230.0 0.0
Dt d 35 35.0 0.0 0.0 230.0 0.0
C1 c1 41 49.0 10.0 18.0 64.0 10.0
C2 c1 35 17.0 7.0 40.0 164.0 10.0
C3 c2 55 45.0 13.0 23.0 197.0 10.0
C4 c2 55 20.0 19.0 93.0 131.0 10.0
C5 c1 15 30.0 26.0 58.0 199.0 10.0
C6 c2 25 30.0 3.0 35.0 165.0 10.0
C7 c2 20 50.0 5.0 74.0 112.0 10.0
C8 c1 10 43.0 9.0 27.0 123.0 10.0
C9 c2 55 60.0 16.0 68.0 187.0 10.0
C10 c2 30 60.0 16.0 120.0 194.0 10.0
C11 c3 20 65.0 12.0 78.0 168.0 10.0
C12 c2 50 35.0 19.0 160.0 204.0 10.0
C13 c1 30 25.0 23.0 117.0 208.0 10.0
C14 c1 15 10.0 20.0 33.0 137.0 10.0
C15 c2 30 5.0 8.0 88.0 150.0 10.0
C16 c1 10 20.0 19.0 30.0 142.0 10.0
C17 c1 5 30.0 2.0 43.0 113.0 10.0
C18 c3 20 40.0 12.0 93.0 171.0 10.0
C19 c1 15 60.0 17.0 84.0 187.0 10.0
C20 c1 45 65.0 9.0 32.0 85.0 10.0
C21 c3 45 20.0 11.0 19.0 142.0 10.0
C22 c2 45 10.0 18.0 27.0 119.0 10.0
C23 c1 55 5.0 29.0 48.0 183.0 10.0
C24 c2 65 35.0 3.0 111.0 190.0 10.0
C25 c3 65 20.0 6.0 48.0 130.0 10.0
C26 c1 45 30.0 17.0 119.0 208.0 10.0
C27 c3 35 40.0 16.0 52.0 215.0 10.0
C28 c1 41 37.0 16.0 101.0 213.0 10.0
C29 c2 64 42.0 9.0 82.0 162.0 10.0
C30 c3 40 60.0 21.0 118.0 194.0 10.0
C31 c3 31 52.0 27.0 18.0 202.0 10.0
C32 c3 35 69.0 23.0 96.0 186.0 10.0
C33 c1 53 52.0 11.0 25.0 165.0 10.0
C34 c1 65 55.0 14.0 81.0 183.0 10.0
C35 c2 63 65.0 8.0 55.0 178.0 10.0
C36 c2 2 60.0 5.0 81.0 178.0 10.0
C37 c3 20 20.0 8.0 34.0 198.0 10.0
C38 c1 5 5.0 16.0 56.0 177.0 10.0
C39 c2 60 12.0 31.0 50.0 186.0 10.0
C40 c1 40 25.0 9.0 12.0 73.0 10.0
C41 c3 42 7.0 5.0 88.0 191.0 10.0
C42 c1 24 12.0 5.0 131.0 173.0 10.0
C43 c1 23 3.0 7.0 43.0 185.0 10.0
C44 c1 11 14.0 18.0 78.0 188.0 10.0
C45 c1 6 38.0 16.0 30.0 190.0 10.0
C46 c2 2 48.0 1.0 74.0 184.0 10.0
C47 c1 8 56.0 27.0 64.0 185.0 10.0
C48 c2 13 52.0 36.0 78.0 192.0 10.0
C49 c1 6 68.0 30.0 58.0 152.0 10.0
C50 c3 47 47.0 13.0 95.0 151.0 10.0
C51 c2 49 58.0 10.0 89.0 193.0 10.0
C52 c3 27 43.0 9.0 47.0 185.0 10.0
C53 c2 37 31.0 14.0 115.0 215.0 10.0
C54 c3 57 29.0 18.0 47.0 139.0 10.0
C55 c1 63 23.0 2.0 31.0 185.0 10.0
C56 c1 53 12.0 6.0 30.0 161.0 10.0
C57 c2 32 12.0 7.0 110.0 196.0 10.0
C58 c1 36 26.0 18.0 74.0 160.0 10.0
C59 c2 21 24.0 28.0 60.0 152.0 10.0
C60 c2 17 34.0 3.0 19.0 125.0 10.0
C61 c2 12 24.0 13.0 26.0 194.0 10.0
C62 c3 24 58.0 19.0 26.0 121.0 10.0
C63 c1 27 69.0 10.0 47.0 185.0 10.0
C64 c2 15 77.0 9.0 95.0 164.0 10.0
C65 c1 62 77.0 20.0 68.0 136.0 10.0
C66 c3 49 73.0 25.0 53.0 179.0 10.0
C67 c1 67 5.0 25.0 60.0 162.0 10.0
C68 c3 56 39.0 36.0 22.0 147.0 10.0
C69 c2 37 47.0 6.0 108.0 204.0 10.0
C70 c1 37 56.0 5.0 23.0 85.0 10.0
C71 c2 57 68.0 15.0 132.0 180.0 10.0
C72 c1 47 16.0 25.0 54.0 178.0 10.0
C73 c1 44 17.0 9.0 119.0 163.0 10.0
C74 c1 46 13.0 8.0 25.0 84.0 10.0
C75 c2 49 11.0 18.0 32.0 96.0 10.0
C76 c3 49 42.0 13.0 103.0 204.0 10.0
C77 c2 53 43.0 14.0 88.0 200.0 10.0
C78 c2 61 52.0 3.0 32.0 188.0 10.0
C79 c1 57 48.0 23.0 48.0 142.0 10.0
C80 c1 56 37.0 6.0 42.0 184.0 10.0
C81 c1 55 54.0 26.0 28.0 105.0 10.0
C82 c2 15 47.0 16.0 124.0 196.0 10.0
C83 c3 14 37.0 11.0 93.0 198.0 10.0
C84 c3 11 31.0 7.0 47.0 155.0 10.0
C85 c3 16 22.0 41.0 24.0 196.0 10.0
C86 c2 4 18.0 35.0 147.0 173.0 10.0
C87 c3 28 18.0 26.0 171.0 171.0 10.0
C88 c2 26 52.0 9.0 78.0 200.0 10.0
C89 c1 26 35.0 15.0 9.0 133.0 10.0
C90 c1 31 67.0 3.0 87.0 157.0 10.0
C91 c2 15 19.0 1.0 26.0 160.0 10.0
C92 c1 22 22.0 2.0 41.0 201.0 10.0
C93 c2 18 24.0 22.0 99.0 137.0 10.0
C94 c2 26 27.0 27.0 130.0 207.0 10.0
C95 c1 25 24.0 20.0 60.0 205.0 10.0
C96 c1 22 27.0 11.0 17.0 49.0 10.0
C97 c2 25 21.0 12.0 133.0 161.0 10.0
C98 c3 19 21.0 10.0 66.0 152.0 10.0
C99 c2 20 26.0 9.0 116.0 170.0 10.0
C100 c1 18 18.0 17.0 93.0 93.0 10.0
P0 p 5 62.0 0.0 0.0 230.0 5.0
P1 p 48 48.0 0.0 0.0 230.0 5.0
P2 p 43 28.0 0.0 0.0 230.0 5.0
P3 p 15 7.0 0.0 0.0 230.0 5.0
P4 p 33 52.0 0.0 0.0 230.0 5.0
0 0 0 0.0 0.0 nan nan nan
0 0 0 0.0 0.0 nan nan nan
0 1 0 0.0 0.0 nan nan nan
0 0 1 0.0 0.0 nan nan nan
0 0 0 0.0 0.0 nan nan nan
0 0 1 0.0 0.0 nan nan nan
0 0 0 0.0 1.0 nan nan nan
0 0 0 0.0 0.0 nan nan nan
0 1 0 0.0 0.0 nan nan nan
0 0 0 0.0 1.0 nan nan nan
1 0 0 0.0 0.0 nan nan nan
0 0 1 0.0 0.0 nan nan nan
0 0 0 0.0 0.0 nan nan nan
0 0 0 0.0 0.0 nan nan nan
0 0 0 1.0 0.0 nan nan nan
0 0 0 0.0 0.0 nan nan nan
0 0 0 0.0 0.0 nan nan nan
0 0 0 0.0 1.0 nan nan nan
0 0 0 0.0 0.0 nan nan nan
0 0 0 0.0 0.0 nan nan nan
0 0 1 0.0 0.0 nan nan nan
0 0 1 0.0 0.0 nan nan nan
0 0 0 0.0 0.0 nan nan nan
0 1 0 0.0 0.0 nan nan nan
0 0 1 0.0 0.0 nan nan nan
0 0 0 0.0 0.0 nan nan nan
0 0 0 0.0 1.0 nan nan nan
0 0 0 0.0 0.0 nan nan nan
0 1 0 0.0 0.0 nan nan nan
0 0 0 0.0 1.0 nan nan nan
0 0 0 0.0 1.0 nan nan nan
0 0 0 0.0 1.0 nan nan nan
0 0 0 0.0 0.0 nan nan nan
0 0 0 0.0 0.0 nan nan nan
0 1 0 0.0 0.0 nan nan nan
1 0 0 0.0 0.0 nan nan nan
0 0 0 1.0 0.0 nan nan nan
0 0 0 0.0 0.0 nan nan nan
0 0 1 0.0 0.0 nan nan nan
0 0 0 0.0 0.0 nan nan nan
0 0 1 0.0 0.0 nan nan nan
0 0 0 0.0 0.0 nan nan nan
0 0 0 0.0 0.0 nan nan nan
0 0 0 0.0 0.0 nan nan nan
0 0 0 0.0 0.0 nan nan nan
1 0 0 0.0 0.0 nan nan nan
0 0 0 0.0 0.0 nan nan nan
1 0 0 0.0 0.0 nan nan nan
0 0 0 0.0 0.0 nan nan nan
0 1 0 0.0 0.0 nan nan nan
0 1 0 0.0 0.0 nan nan nan
0 0 0 0.0 1.0 nan nan nan
0 0 1 0.0 0.0 nan nan nan
0 0 1 0.0 0.0 nan nan nan
0 0 0 0.0 0.0 nan nan nan
0 0 0 0.0 0.0 nan nan nan
0 0 0 1.0 0.0 nan nan nan
0 0 0 0.0 0.0 nan nan nan
0 0 0 1.0 0.0 nan nan nan
0 0 0 0.0 1.0 nan nan nan
0 0 0 1.0 0.0 nan nan nan
0 0 0 0.0 1.0 nan nan nan
0 0 0 0.0 0.0 nan nan nan
1 0 0 0.0 0.0 nan nan nan
0 0 0 0.0 0.0 nan nan nan
0 1 0 0.0 0.0 nan nan nan
0 0 0 0.0 0.0 nan nan nan
0 1 0 0.0 0.0 nan nan nan
0 0 0 0.0 1.0 nan nan nan
0 0 0 0.0 0.0 nan nan nan
0 1 0 0.0 0.0 nan nan nan
0 0 0 0.0 0.0 nan nan nan
0 0 0 0.0 0.0 nan nan nan
0 0 0 0.0 0.0 nan nan nan
0 0 1 0.0 0.0 nan nan nan
0 1 0 0.0 0.0 nan nan nan
0 1 0 0.0 0.0 nan nan nan
0 1 0 0.0 0.0 nan nan nan
0 0 0 0.0 0.0 nan nan nan
0 0 0 0.0 0.0 nan nan nan
0 0 0 0.0 0.0 nan nan nan
1 0 0 0.0 0.0 nan nan nan
0 0 0 0.0 1.0 nan nan nan
0 0 0 1.0 0.0 nan nan nan
0 0 0 1.0 0.0 nan nan nan
0 0 0 1.0 0.0 nan nan nan
0 0 0 1.0 0.0 nan nan nan
0 0 0 0.0 1.0 nan nan nan
0 0 0 0.0 0.0 nan nan nan
0 0 0 0.0 0.0 nan nan nan
0 0 0 1.0 0.0 nan nan nan
0 0 0 0.0 0.0 nan nan nan
0 0 0 1.0 0.0 nan nan nan
0 0 1 0.0 0.0 nan nan nan
0 0 0 0.0 0.0 nan nan nan
0 0 0 0.0 0.0 nan nan nan
0 0 0 1.0 0.0 nan nan nan
0 0 0 1.0 0.0 nan nan nan
0 0 0 1.0 0.0 nan nan nan
0 0 0 0.0 0.0 nan nan nan
param CV := 200.0 nan nan nan nan
param V := 1.0 nan nan nan nan
